100
1000
200
200
198
198
198
197
197
197
197
197
197
196
196
196
196
196
195
195
195
194
194
194
194
193
193
193
192
191
191
190
190
190
190
190
188
186
186
186
186
186
184
183
183
182
182
181
181
181
180
179
179
179
178
177
176
176
176
175
175
175
173
173
172
171
171
170
168
166
166
164
164
164
161
161
161
161
160
160
159
159
159
158
158
157
157
157
157
155
155
154
154
153
153
153
153
152
152
151
151
151
